1035
1   1   0    0    0 0
1   2   0    147  0 16 86 46 47 19 11 48 0
1   3   0    200  0 93 98 37 100 42 43 15 1 20 32 63 64 49 36 82 83 0
1   4   0    161  0 6 94 95 92 85 91 14 38 44 61 0
1   5   0    166  0 60 69 33 81 78 34 35 65 66 71 9 51 52 0
2   1   0    147  0 77 76 28 53 41 23 67 39 0
2   2   0    107  0 29 24 55 25 56 22 74 75 4 54 0
2   3   0    193  0 80 68 27 89 18 8 45 17 84 5 99 59 96 0
2   4   0    154  0 3 79 70 31 88 7 62 10 90 30 50 0
2   5   0    183  0 21 72 73 2 57 87 97 13 58 40 26 12 0